solution status: optimal solution found
objective value:                                    1
shell_i_bank.thing.devices[0].thingy.vsieve                    1 	(obj:0)
shell_j_bank.push_ctrl_hole                         1 	(obj:0)
shell_j_bank.push_flush_hole                        1 	(obj:0)
shell_j_bank.cells_in_ctrl_hole                     1 	(obj:0)
shell_j_bank.waste_flush_hole                       1 	(obj:0)
shell_i_bank.beads_ctrl_hole                        1 	(obj:0)
shell_j_bank.lysis_in_flush_hole                    1 	(obj:0)
shell_j_bank.lysis_out_flush_hole                    1 	(obj:0)
shell_i_bank.thing.devices[0].thingy.vsep                    1 	(obj:0)
shell_i_bank.beads_flush_hole                       1 	(obj:0)
shell_j_bank.waste_ctrl_hole                        1 	(obj:0)
shell_i_bank.cells_out_flush_hole                    1 	(obj:0)
shell_i_bank.cells_out_ctrl_hole                    1 	(obj:0)
shell_j_bank.lysis_in_ctrl_hole                     1 	(obj:0)
shell_j_bank.thing.devices[0].thingy.vpump1                    1 	(obj:0)
shell_j_bank.cells_in_flush_hole                    1 	(obj:0)
shell_j_bank.thing.devices[0].thingy.vpump2                    1 	(obj:0)
shell_j_bank.collect_ctrl_hole                      1 	(obj:0)
shell_j_bank.collect_flush_hole                     1 	(obj:0)
shell_i_bank.lysis_out_ctrl_hole                    1 	(obj:0)
shell_j_bank.thing.devices[0].thingy.vpump3                    1 	(obj:0)
bank.thing.devices[0].thingy.vsep_z                   24 	(obj:0)
bank.cells_in_ctrl_hole_y                           5 	(obj:0)
bank.cells_in_ctrl_hole_z                          25 	(obj:0)
bank.beads_flush_hole_x                             5 	(obj:0)
bank.beads_flush_hole_y                             4 	(obj:0)
bank.beads_flush_hole_z                            22 	(obj:0)
bank.push_ctrl_hole_y                               5 	(obj:0)
bank.push_ctrl_hole_z                              25 	(obj:0)
bank.waste_ctrl_hole_x                              2 	(obj:0)
bank.waste_ctrl_hole_y                              5 	(obj:0)
bank.waste_ctrl_hole_z                             23 	(obj:0)
bank.waste_flush_hole_x                             3 	(obj:0)
bank.waste_flush_hole_y                             5 	(obj:0)
bank.cells_out_flush_hole_x                         5 	(obj:0)
bank.cells_out_flush_hole_y                         3 	(obj:0)
bank.cells_out_flush_hole_z                        23 	(obj:0)
bank.waste_flush_hole_z                            24 	(obj:0)
bank.thing.devices[0].thingy.vsieve_z                   23 	(obj:0)
bank.cells_out_ctrl_hole_x                          5 	(obj:0)
bank.cells_out_ctrl_hole_y                          3 	(obj:0)
bank.cells_out_ctrl_hole_z                         25 	(obj:0)
bank.thing.devices[0].thingy.vsieve_x                    5 	(obj:0)
bank.beads_ctrl_hole_x                              5 	(obj:0)
bank.lysis_in_ctrl_hole_x                           4 	(obj:0)
bank.lysis_in_ctrl_hole_y                           5 	(obj:0)
bank.lysis_in_ctrl_hole_z                          24 	(obj:0)
bank.beads_ctrl_hole_y                              4 	(obj:0)
bank.beads_ctrl_hole_z                             25 	(obj:0)
bank.thing.devices[0].thingy.vpump1_x                    5 	(obj:0)
bank.thing.devices[0].thingy.vpump1_y                    5 	(obj:0)
bank.thing.devices[0].thingy.vpump1_z                   23 	(obj:0)
bank.push_flush_hole_x                              3 	(obj:0)
bank.push_flush_hole_y                              5 	(obj:0)
bank.cells_in_flush_hole_x                          5 	(obj:0)
bank.cells_in_flush_hole_y                          5 	(obj:0)
bank.cells_in_flush_hole_z                         21 	(obj:0)
bank.lysis_in_flush_hole_x                          5 	(obj:0)
bank.lysis_in_flush_hole_y                          5 	(obj:0)
bank.thing.devices[0].thingy.vpump2_x                    5 	(obj:0)
bank.thing.devices[0].thingy.vpump2_y                    5 	(obj:0)
bank.thing.devices[0].thingy.vpump2_z                   25 	(obj:0)
bank.lysis_in_flush_hole_z                         22 	(obj:0)
bank.push_flush_hole_z                             23 	(obj:0)
bank.collect_ctrl_hole_x                            4 	(obj:0)
bank.collect_ctrl_hole_y                            5 	(obj:0)
bank.collect_ctrl_hole_z                           25 	(obj:0)
bank.thing.devices[0].thingy.vsieve_y                    4 	(obj:0)
bank.lysis_out_flush_hole_x                         3 	(obj:0)
bank.collect_flush_hole_x                           4 	(obj:0)
bank.collect_flush_hole_y                           5 	(obj:0)
bank.collect_flush_hole_z                          23 	(obj:0)
bank.lysis_out_flush_hole_y                         5 	(obj:0)
bank.lysis_out_flush_hole_z                        22 	(obj:0)
bank.lysis_out_ctrl_hole_x                          5 	(obj:0)
bank.lysis_out_ctrl_hole_y                          3 	(obj:0)
bank.lysis_out_ctrl_hole_z                         24 	(obj:0)
bank.push_ctrl_hole_x                               2 	(obj:0)
bank.cells_in_ctrl_hole_x                           3 	(obj:0)
bank.thing.devices[0].thingy.vpump3_x                    5 	(obj:0)
bank.thing.devices[0].thingy.vpump3_y                    5 	(obj:0)
bank.thing.devices[0].thingy.vpump3_z                   24 	(obj:0)
bank.thing.devices[0].thingy.vsep_x                    5 	(obj:0)
bank.thing.devices[0].thingy.vsep_y                    4 	(obj:0)
x110                                                1 	(obj:1)
